
%FILE DATA:	Soccer Computational Problem for MiniZinc Models	%
%AUTHOR:	Jack Wall	%
%CONTACT:  	116397063@umail.ucc.ie			%
%LAST UPDATE:	03/03/2020, 16:00:17						%
%DESCRIPTION: 	24 games played with 18 games left				%


n=7; %number of teams

%Games to play
games=[|3,6|6,3|7,2|6,7|7,5|1,6|1,3|2,5|5,1|2,1|4,7|5,7|3,5|2,6|3,2|3,4|4,6|6,5|];

%Initial points
iPoints=[9,9,11,8,13,5,12];

%POSITION CONSTRAINTS
% [|teamID, operator, position|...]
% operators index:
%  1 for =  operator
%  2 for >  operator
%  3 for >= operator
%  4 for <  operator
%  5 for <= operator
positionConstraints=[|5,5,1|7,5,2|];